2000	50	0,6	0,15	4,53777350	39
2000	50	0,6	0,15	4,76882670	39
2000	50	0,6	0,15	5,82118780	39
2000	50	0,6	0,15	4,73414970	39
2000	50	0,6	0,15	4,88444070	39
2000	50	0,6	0,15	4,75918660	39
2000	50	0,6	0,15	4,53842630	39
2000	50	0,6	0,15	4,53520440	39
2000	50	0,6	0,15	4,53264380	39
2000	50	0,6	0,15	4,53182510	39
